WARNING: for repeatability, setting FPU to use double precision
============================[ Problem Statistics ]=============================
|                                                                             |
|  Number of variables:            50                                         |
|  Number of clauses:             218                                         |
|  Parse time:                   0.00 s                                       |
|                                                                             |
============================[ Search Statistics ]==============================
| Conflicts |          ORIGINAL         |          LEARNT          | Progress |
|           |    Vars  Clauses Literals |    Limit  Clauses Lit/Cl |          |
===============================================================================
===============================================================================
restarts              : 1
conflicts             : 66             (43279 /sec)
decisions             : 73             (0.00 % random) (47869 /sec)
propagations          : 967            (634098 /sec)
conflict literals     : 231            (21.16 % deleted)
Memory used           : 20.00 MB
CPU time              : 0.001525 s

UNSATISFIABLE
